nNurses = 88;
nHours = 40;
minHours = 5;
maxHours = 10;
maxConsec = 10;
maxPresence = 17;
demand = [20, 17, 18, 22, 19, 16, 21, 20, 21, 17, 18, 20, 16, 20, 19, 19, 17, 22, 21, 19, 22, 20, 21, 17, 19, 20, 16, 14, 10, 11, 13, 10, 6, 7, 12, 8, 10, 13, 11, 13];
